5 5
1 87 0 88 3 97 4 94 2 38
0 66 3 40 2 22 1 75 4 63
3 59 0 76 4 19 2 20 1 73
1 43 4 58 0 82 2 54 3 82
4 40 3 27 0 13 1 47 2 72
-1
0 2 4 5
0 2 5
0 2 3 5
0 1 3 4 5
0 3 5
-2
203 469 586
163 319
201 208 248
53 237 285 367
106 234

469 8
5 22 1 11 17
0 23 15 8 14
7 24 13 18 4
21 6 10 2 19
20 16 12 9 3
